NAME : zqloutput/eax-hard-simple-rescaleandround/50-92.tsp
TYPE : TSP
DIMENSION : 50
EDGE_WEIGHT_TYPE : EUC_2D
NODE_COORD_SECTION
1 505387 405007
2 659793 454258
3 371992 479927
4 793195 884187
5 173940 790829
6 528151 428003
7 517963 126373
8 92366 527594
9 64744 834499
10 463851 955343
11 552729 428001
12 747957 279614
13 924529 688064
14 304066 171239
15 808509 122704
16 528329 483345
17 138831 803929
18 649855 706037
19 173118 953892
20 397793 909597
21 950544 884425
22 695919 844280
23 423082 762320
24 782033 295572
25 767585 452902
26 805072 389704
27 446864 629695
28 552688 407763
29 484569 161153
30 129969 80225
31 422350 909784
32 228857 502315
33 787103 373415
34 729239 515034
35 92139 535899
36 984224 114584
37 938024 818292
38 689936 256933
39 598277 728456
40 361020 480302
41 774338 190081
42 755869 478337
43 240147 480019
44 56955 709969
45 580851 407545
46 499485 363311
47 195826 31328
48 671063 579722
49 998163 232987
50 356102 469494
EOF
